
;this file is automatically generated: Wed Mar 22 14:45:33 GMT 2017

;declarations generated

(declare-fun A0 () Int )
(declare-fun s31 () Int )
(declare-fun s30 () Int )
(declare-fun s33 () Int )
(declare-fun s32 () Int )
(declare-fun s35 () Int )
(declare-fun s34 () Int )
(declare-fun s37 () Int )
(declare-fun s36 () Int )
(declare-fun s39 () Int )
(declare-fun s38 () Int )
(declare-fun s0 () Int )
(declare-fun s1 () Int )
(declare-fun s2 () Int )
(declare-fun s3 () Int )
(declare-fun s4 () Int )
(declare-fun s5 () Int )
(declare-fun s6 () Int )
(declare-fun s7 () Int )
(declare-fun s8 () Int )
(declare-fun s9 () Int )
(declare-fun s40 () Int )
(declare-fun s42 () Int )
(declare-fun s41 () Int )
(declare-fun s44 () Int )
(declare-fun s43 () Int )
(declare-fun s46 () Int )
(declare-fun s45 () Int )
(declare-fun a_0_11 () Int )
(declare-fun s11 () Int )
(declare-fun s10 () Int )
(declare-fun s13 () Int )
(declare-fun s12 () Int )
(declare-fun s15 () Int )
(declare-fun s14 () Int )
(declare-fun s17 () Int )
(declare-fun s16 () Int )
(declare-fun s19 () Int )
(declare-fun s18 () Int )
(declare-fun s20 () Int )
(declare-fun s22 () Int )
(declare-fun s21 () Int )
(declare-fun s24 () Int )
(declare-fun s23 () Int )
(declare-fun s26 () Int )
(declare-fun s25 () Int )
(declare-fun s28 () Int )
(declare-fun s27 () Int )
(declare-fun s29 () Int )

;formula(s) generated
(assert (and (>= A0 0) (<= A0 1)))
(assert (and (>= s0 0) (<= s0 1)))
(assert (and (>= s1 0) (<= s1 1)))
(assert (and (>= s2 0) (<= s2 1)))
(assert (and (>= s3 0) (<= s3 1)))
(assert (and (>= s4 0) (<= s4 1)))
(assert (and (>= s5 0) (<= s5 1)))
(assert (and (>= s6 0) (<= s6 1)))
(assert (and (>= s7 0) (<= s7 1)))
(assert (and (>= s8 0) (<= s8 1)))
(assert (and (>= s9 0) (<= s9 1)))
(assert (and (>= s10 0) (<= s10 1)))
(assert (and (>= s11 0) (<= s11 1)))
(assert (and (>= s12 0) (<= s12 1)))
(assert (and (>= s13 0) (<= s13 1)))
(assert (and (>= s14 0) (<= s14 1)))
(assert (and (>= s15 0) (<= s15 1)))
(assert (and (>= s16 0) (<= s16 1)))
(assert (and (>= s17 0) (<= s17 1)))
(assert (and (>= s18 0) (<= s18 1)))
(assert (and (>= s19 0) (<= s19 1)))
(assert (and (>= s20 0) (<= s20 1)))
(assert (and (>= s21 0) (<= s21 1)))
(assert (and (>= s22 0) (<= s22 1)))
(assert (and (>= s23 0) (<= s23 1)))
(assert (and (>= s24 0) (<= s24 1)))
(assert (and (>= s25 0) (<= s25 1)))
(assert (and (>= s26 0) (<= s26 1)))
(assert (and (>= s27 0) (<= s27 1)))
(assert (and (>= s28 0) (<= s28 1)))
(assert (and (>= s29 0) (<= s29 1)))
(assert (and (>= s30 0) (<= s30 1)))
(assert (and (>= s31 0) (<= s31 1)))
(assert (and (>= s32 0) (<= s32 1)))
(assert (and (>= s33 0) (<= s33 1)))
(assert (and (>= s34 0) (<= s34 1)))
(assert (and (>= s35 0) (<= s35 1)))
(assert (and (>= s36 0) (<= s36 1)))
(assert (and (>= s37 0) (<= s37 1)))
(assert (and (>= s38 0) (<= s38 1)))
(assert (and (>= s39 0) (<= s39 1)))
(assert (and (>= s40 0) (<= s40 1)))
(assert (and (>= s41 0) (<= s41 1)))
(assert (and (>= s42 0) (<= s42 1)))
(assert (and (>= s43 0) (<= s43 1)))
(assert (and (>= s44 0) (<= s44 1)))
(assert (and (>= s45 0) (<= s45 1)))
(assert (and (>= s46 0) (<= s46 1)))
(assert (and (>= a_0_11 0) (<= a_0_11 1)))
(assert (= s0 0))
(assert (= s1 0))
(assert (= s2 0))
(assert (= s3 0))
(assert (= s4 0))
(assert (= s5 0))
(assert (= s6 0))
(assert (= s7 0))
(assert (= s8 0))
(assert (= s9 0))
(assert (= s10 0))
(assert (=> (= s11 1) (= a_0_11 1)))
(assert (=> (= s11 0) (= a_0_11 0)))
(assert (= s12 0))
(assert (= s13 0))
(assert (= s14 0))
(assert (= s15 0))
(assert (= s16 0))
(assert (= s17 0))
(assert (= s18 0))
(assert (= s19 0))
(assert (= s20 0))
(assert (= s21 0))
(assert (= s22 0))
(assert (= s23 0))
(assert (= s24 0))
(assert (= s25 0))
(assert (= s26 0))
(assert (= s27 0))
(assert (= s28 0))
(assert (= s29 0))
(assert (= s30 0))
(assert (= s31 0))
(assert (= s32 0))
(assert (= s33 0))
(assert (= s34 0))
(assert (= s35 0))
(assert (= s36 0))
(assert (= s37 0))
(assert (= s38 0))
(assert (= s39 0))
(assert (= s40 0))
(assert (= s41 0))
(assert (= s42 0))
(assert (= s43 0))
(assert (= s44 0))
(assert (= s45 0))
(assert (= s46 0))
(assert (=> (= a_0_11 1) (= A0 1)))
(assert (=> (= a_0_11 0) (= A0 0)))
(assert (not (= s11 1) ))
(assert (= (+ (+ (+ (+ (+ (+ (+ (+ (+ (+ (+ (+ (+ (+ (+ (+ (+ (+ (+ (+ (+ (+ (+ (+ (+ (+ (+ (+ (+ (+ (+ (+ (+ (+ (+ (+ (+ (+ (+ (+ (+ (+ (+ (+ (+ (+ s0 s1) s2) s3) s4) s5) s6) s7) s8) s9) s10) s11) s12) s13) s14) s15) s16) s17) s18) s19) s20) s21) s22) s23) s24) s25) s26) s27) s28) s29) s30) s31) s32) s33) s34) s35) s36) s37) s38) s39) s40) s41) s42) s43) s44) s45) s46) 48))
